(set-logic QF_S)
(declare-fun var0 () Int)
(declare-fun var1 () Int)
(declare-fun var2 () String)
(declare-fun var3 () String)
(declare-fun var4 () Int)
(declare-fun var5 () String)
(declare-fun var6 () Int)
(declare-fun var7 () String)
(assert (<= var0 var1))
(assert (>= (str.indexof var2 var3 var4) (str.len var5)))
(assert (not (> var6 63)))
(assert (>= (str.indexof var7 var3 var4) (str.indexof var3 var7 var1)))
(check-sat)